71
0 10 55 13 15 26 57 31 18 34 
38 70 69 65 11 64 52 67 45 49 
33 36 16 17 4 1 41 42 9 24 
47 27 35 22 40 37 53 25 48 20 
58 44 46 2 12 3 68 61 50 23 
62 60 30 14 21 5 59 56 32 54 
29 8 7 66 39 63 43 51 6 28 
19 
